(set-logic LIA)
(set-option :produce-models true)
(declare-const X1 Int)
(assert (>= X1 0))
(assert (>= 4000000 X1))
(declare-const X2 Int)
(assert (>= X2 0))
(assert (>= 4000000 X2))
(declare-const X3 Int)
(assert (>= X3 (- 1380052)))
(assert (>= 2619948 X3))
(declare-const X4 Int)
(assert (>= X4 (- 2619948)))
(assert (>= 1380052 X4))
(declare-const X5 Int)
(assert (>= X5 (- 1380052)))
(assert (>= 2619948 X5))
(declare-const X6 Int)
(assert (>= X6 (- 1560255)))
(assert (>= 2439745 X6))
(declare-const X7 Int)
(assert (>= X7 (- 2439745)))
(assert (>= 1560255 X7))
(declare-const X8 Int)
(assert (>= X8 (- 1560255)))
(assert (>= 2439745 X8))
(declare-const X9 Int)
(assert (>= X9 (- 3959302)))
(assert (>= 40698 X9))
(declare-const X10 Int)
(assert (>= X10 (- 40698)))
(assert (>= 3959302 X10))
(declare-const X11 Int)
(assert (>= X11 (- 40698)))
(assert (>= 3959302 X11))
(declare-const X12 Int)
(assert (>= X12 (- 797743)))
(assert (>= 3202257 X12))
(declare-const X13 Int)
(assert (>= X13 (- 3202257)))
(assert (>= 797743 X13))
(declare-const X14 Int)
(assert (>= X14 (- 797743)))
(assert (>= 3202257 X14))
(declare-const X15 Int)
(assert (>= X15 (- 82083)))
(assert (>= 3917917 X15))
(declare-const X16 Int)
(assert (>= X16 (- 3917917)))
(assert (>= 82083 X16))
(declare-const X17 Int)
(assert (>= X17 (- 82083)))
(assert (>= 3917917 X17))
(declare-const X18 Int)
(assert (>= X18 (- 207352)))
(assert (>= 3792648 X18))
(declare-const X19 Int)
(assert (>= X19 (- 3792648)))
(assert (>= 207352 X19))
(declare-const X20 Int)
(assert (>= X20 (- 207352)))
(assert (>= 3792648 X20))
(declare-const X21 Int)
(assert (>= X21 (- 3834061)))
(assert (>= 165939 X21))
(declare-const X22 Int)
(assert (>= X22 (- 165939)))
(assert (>= 3834061 X22))
(declare-const X23 Int)
(assert (>= X23 (- 165939)))
(assert (>= 3834061 X23))
(declare-const X24 Int)
(assert (>= X24 (- 3501411)))
(assert (>= 498589 X24))
(declare-const X25 Int)
(assert (>= X25 (- 498589)))
(assert (>= 3501411 X25))
(declare-const X26 Int)
(assert (>= X26 (- 498589)))
(assert (>= 3501411 X26))
(declare-const X27 Int)
(assert (>= X27 (- 492581)))
(assert (>= 3507419 X27))
(declare-const X28 Int)
(assert (>= X28 (- 3507419)))
(assert (>= 492581 X28))
(declare-const X29 Int)
(assert (>= X29 (- 492581)))
(assert (>= 3507419 X29))
(declare-const X30 Int)
(assert (>= X30 (- 1161314)))
(assert (>= 2838686 X30))
(declare-const X31 Int)
(assert (>= X31 (- 2838686)))
(assert (>= 1161314 X31))
(declare-const X32 Int)
(assert (>= X32 (- 1161314)))
(assert (>= 2838686 X32))
(declare-const X33 Int)
(assert (>= X33 (- 1084932)))
(assert (>= 2915068 X33))
(declare-const X34 Int)
(assert (>= X34 (- 2915068)))
(assert (>= 1084932 X34))
(declare-const X35 Int)
(assert (>= X35 (- 1084932)))
(assert (>= 2915068 X35))
(declare-const X36 Int)
(assert (>= X36 (- 1245734)))
(assert (>= 2754266 X36))
(declare-const X37 Int)
(assert (>= X37 (- 2754266)))
(assert (>= 1245734 X37))
(declare-const X38 Int)
(assert (>= X38 (- 1245734)))
(assert (>= 2754266 X38))
(declare-const X39 Int)
(assert (>= X39 (- 330942)))
(assert (>= 3669058 X39))
(declare-const X40 Int)
(assert (>= X40 (- 3669058)))
(assert (>= 330942 X40))
(declare-const X41 Int)
(assert (>= X41 (- 330942)))
(assert (>= 3669058 X41))
(declare-const X42 Int)
(assert (>= X42 (- 1649269)))
(assert (>= 2350731 X42))
(declare-const X43 Int)
(assert (>= X43 (- 2350731)))
(assert (>= 1649269 X43))
(declare-const X44 Int)
(assert (>= X44 (- 1649269)))
(assert (>= 2350731 X44))
(declare-const X45 Int)
(assert (>= X45 (- 3459045)))
(assert (>= 540955 X45))
(declare-const X46 Int)
(assert (>= X46 (- 540955)))
(assert (>= 3459045 X46))
(declare-const X47 Int)
(assert (>= X47 (- 540955)))
(assert (>= 3459045 X47))
(declare-const X48 Int)
(assert (>= X48 (- 106688)))
(assert (>= 3893312 X48))
(declare-const X49 Int)
(assert (>= X49 (- 3893312)))
(assert (>= 106688 X49))
(declare-const X50 Int)
(assert (>= X50 (- 106688)))
(assert (>= 3893312 X50))
(declare-const X51 Int)
(assert (>= X51 (- 976)))
(assert (>= 3999024 X51))
(declare-const X52 Int)
(assert (>= X52 (- 3999024)))
(assert (>= 976 X52))
(declare-const X53 Int)
(assert (>= X53 (- 976)))
(assert (>= 3999024 X53))
(declare-const X54 Int)
(assert (>= X54 (- 885740)))
(assert (>= 3114260 X54))
(declare-const X55 Int)
(assert (>= X55 (- 3114260)))
(assert (>= 885740 X55))
(declare-const X56 Int)
(assert (>= X56 (- 885740)))
(assert (>= 3114260 X56))
(declare-const X57 Int)
(assert (>= X57 (- 1170192)))
(assert (>= 2829808 X57))
(declare-const X58 Int)
(assert (>= X58 (- 2829808)))
(assert (>= 1170192 X58))
(declare-const X59 Int)
(assert (>= X59 (- 1170192)))
(assert (>= 2829808 X59))
(declare-const X60 Int)
(assert (>= X60 (- 1793552)))
(assert (>= 2206448 X60))
(declare-const X61 Int)
(assert (>= X61 (- 2206448)))
(assert (>= 1793552 X61))
(declare-const X62 Int)
(assert (>= X62 (- 1793552)))
(assert (>= 2206448 X62))
(declare-const X63 Int)
(assert (>= X63 (- 2819196)))
(assert (>= 1180804 X63))
(declare-const X64 Int)
(assert (>= X64 (- 1180804)))
(assert (>= 2819196 X64))
(declare-const X65 Int)
(assert (>= X65 (- 1180804)))
(assert (>= 2819196 X65))
(declare-const X66 Int)
(assert (>= X66 (- 2887957)))
(assert (>= 1112043 X66))
(declare-const X67 Int)
(assert (>= X67 (- 1112043)))
(assert (>= 2887957 X67))
(declare-const X68 Int)
(assert (>= X68 (- 1112043)))
(assert (>= 2887957 X68))
(declare-const X69 Int)
(assert (>= X69 (- 1040560)))
(assert (>= 2959440 X69))
(declare-const X70 Int)
(assert (>= X70 (- 2959440)))
(assert (>= 1040560 X70))
(declare-const X71 Int)
(assert (>= X71 (- 1040560)))
(assert (>= 2959440 X71))
(declare-const X72 Int)
(assert (>= X72 (- 1947138)))
(assert (>= 2052862 X72))
(declare-const X73 Int)
(assert (>= X73 (- 2052862)))
(assert (>= 1947138 X73))
(declare-const X74 Int)
(assert (>= X74 (- 1947138)))
(assert (>= 2052862 X74))
(declare-const X75 Int)
(assert (>= X75 (- 612920)))
(assert (>= 3387080 X75))
(declare-const X76 Int)
(assert (>= X76 (- 3387080)))
(assert (>= 612920 X76))
(declare-const X77 Int)
(assert (>= X77 (- 612920)))
(assert (>= 3387080 X77))
(declare-const X78 Int)
(assert (>= X78 (- 606138)))
(assert (>= 3393862 X78))
(declare-const X79 Int)
(assert (>= X79 (- 3393862)))
(assert (>= 606138 X79))
(declare-const X80 Int)
(assert (>= X80 (- 606138)))
(assert (>= 3393862 X80))
(declare-const X81 Int)
(assert (>= X81 (- 1916984)))
(assert (>= 2083016 X81))
(declare-const X82 Int)
(assert (>= X82 (- 2083016)))
(assert (>= 1916984 X82))
(declare-const X83 Int)
(assert (>= X83 (- 1916984)))
(assert (>= 2083016 X83))
(declare-const X84 Int)
(assert (>= X84 (- 256151)))
(assert (>= 3743849 X84))
(declare-const X85 Int)
(assert (>= X85 (- 3743849)))
(assert (>= 256151 X85))
(declare-const X86 Int)
(assert (>= X86 (- 256151)))
(assert (>= 3743849 X86))
(declare-const X87 Int)
(assert (>= X87 (- 2531114)))
(assert (>= 1468886 X87))
(declare-const X88 Int)
(assert (>= X88 (- 1468886)))
(assert (>= 2531114 X88))
(declare-const X89 Int)
(assert (>= X89 (- 910152)))
(assert (>= 2531114 X89))
(declare-const X90 Int)
(assert (>= X90 (- 2402919)))
(assert (>= 1597081 X90))
(declare-const X91 Int)
(assert (>= X91 (- 1597081)))
(assert (>= 2402919 X91))
(declare-const X92 Int)
(assert (>= X92 (- 1038347)))
(assert (>= 2402919 X92))
(declare-const X93 Int)
(assert (>= X93 (- 726660)))
(assert (>= 3273340 X93))
(declare-const X94 Int)
(assert (>= X94 (- 3273340)))
(assert (>= 726660 X94))
(declare-const X95 Int)
(assert (>= X95 (- 726660)))
(assert (>= 3273340 X95))
(declare-const X96 Int)
(assert (>= X96 (- 1968)))
(assert (>= 3998032 X96))
(declare-const X97 Int)
(assert (>= X97 (- 3998032)))
(assert (>= 1968 X97))
(declare-const X98 Int)
(assert (>= X98 (- 1968)))
(assert (>= 3998032 X98))
(declare-const X99 Int)
(assert (>= X99 (- 1025193)))
(assert (>= 2974807 X99))
(declare-const X100 Int)
(assert (>= X100 (- 2974807)))
(assert (>= 1025193 X100))
(declare-const X101 Int)
(assert (>= X101 (- 1025193)))
(assert (>= 2974807 X101))
(declare-const X102 Int)
(assert (>= X102 (- 267196)))
(assert (>= 3732804 X102))
(declare-const X103 Int)
(assert (>= X103 (- 3732804)))
(assert (>= 267196 X103))
(declare-const X104 Int)
(assert (>= X104 (- 267196)))
(assert (>= 3732804 X104))
(declare-const X105 Int)
(assert (>= X105 (- 2135583)))
(assert (>= 1864417 X105))
(declare-const X106 Int)
(assert (>= X106 (- 1864417)))
(assert (>= 2135583 X106))
(declare-const X107 Int)
(assert (>= X107 (- 1864417)))
(assert (>= 2135583 X107))
(declare-const X108 Int)
(assert (>= X108 (- 3639549)))
(assert (>= 360451 X108))
(declare-const X109 Int)
(assert (>= X109 (- 360451)))
(assert (>= 3639549 X109))
(declare-const X110 Int)
(assert (>= X110 (- 360451)))
(assert (>= 3639549 X110))
(declare-const X111 Int)
(assert (>= X111 (- 2505914)))
(assert (>= 1494086 X111))
(declare-const X112 Int)
(assert (>= X112 (- 1494086)))
(assert (>= 2505914 X112))
(declare-const X113 Int)
(assert (>= X113 (- 1494086)))
(assert (>= 2505914 X113))
(declare-const X114 Int)
(assert (>= X114 (- 969366)))
(assert (>= 3030634 X114))
(declare-const X115 Int)
(assert (>= X115 (- 3030634)))
(assert (>= 969366 X115))
(declare-const X116 Int)
(assert (>= X116 (- 969366)))
(assert (>= 3030634 X116))
(declare-const X117 Int)
(assert (>= X117 (- 9266)))
(assert (>= 3990734 X117))
(declare-const X118 Int)
(assert (>= X118 (- 3990734)))
(assert (>= 9266 X118))
(declare-const X119 Int)
(assert (>= X119 (- 9266)))
(assert (>= 3990734 X119))
(declare-const X120 Int)
(assert (>= X120 (- 1008109)))
(assert (>= 2991891 X120))
(declare-const X121 Int)
(assert (>= X121 (- 2991891)))
(assert (>= 1008109 X121))
(declare-const X122 Int)
(assert (>= X122 (- 1008109)))
(assert (>= 2991891 X122))
(declare-const X123 Int)
(assert (>= X123 (- 3879357)))
(assert (>= 120643 X123))
(declare-const X124 Int)
(assert (>= X124 (- 120643)))
(assert (>= 3879357 X124))
(declare-const X125 Int)
(assert (>= X125 (- 120643)))
(assert (>= 3879357 X125))
(declare-const X126 Int)
(assert (>= X126 (- 1121027)))
(assert (>= 2878973 X126))
(declare-const X127 Int)
(assert (>= X127 (- 2878973)))
(assert (>= 1121027 X127))
(declare-const X128 Int)
(assert (>= X128 (- 1121027)))
(assert (>= 2878973 X128))
(declare-const X129 Int)
(assert (>= X129 (- 3999511)))
(assert (>= 489 X129))
(declare-const X130 Int)
(assert (>= X130 (- 489)))
(assert (>= 3999511 X130))
(declare-const X131 Int)
(assert (>= X131 (- 489)))
(assert (>= 3999511 X131))
(declare-const X132 Int)
(assert (>= X132 (- 2758187)))
(assert (>= 1241813 X132))
(declare-const X133 Int)
(assert (>= X133 (- 1241813)))
(assert (>= 2758187 X133))
(declare-const X134 Int)
(assert (>= X134 (- 1241813)))
(assert (>= 2758187 X134))
(declare-const X135 Int)
(assert (>= X135 (- 3279616)))
(assert (>= 720384 X135))
(declare-const X136 Int)
(assert (>= X136 (- 720384)))
(assert (>= 3279616 X136))
(declare-const X137 Int)
(assert (>= X137 (- 720384)))
(assert (>= 3279616 X137))
(declare-const X138 Int)
(assert (>= X138 (- 3865360)))
(assert (>= 134640 X138))
(declare-const X139 Int)
(assert (>= X139 (- 134640)))
(assert (>= 3865360 X139))
(declare-const X140 Int)
(assert (>= X140 (- 134640)))
(assert (>= 3865360 X140))
(declare-const X141 Int)
(assert (>= X141 (- 1125788)))
(assert (>= 2874212 X141))
(declare-const X142 Int)
(assert (>= X142 (- 2874212)))
(assert (>= 1125788 X142))
(declare-const X143 Int)
(assert (>= X143 (- 1125788)))
(assert (>= 2874212 X143))
(declare-const X144 Int)
(assert (>= X144 (- 102942)))
(assert (>= 3897058 X144))
(declare-const X145 Int)
(assert (>= X145 (- 3897058)))
(assert (>= 102942 X145))
(declare-const X146 Int)
(assert (>= X146 (- 102942)))
(assert (>= 3897058 X146))
(declare-const X147 Int)
(assert (>= X147 (- 1191341)))
(assert (>= 2808659 X147))
(declare-const X148 Int)
(assert (>= X148 (- 2808659)))
(assert (>= 1191341 X148))
(declare-const X149 Int)
(assert (>= X149 (- 1191341)))
(assert (>= 2808659 X149))
(declare-const X150 Int)
(assert (>= X150 (- 719729)))
(assert (>= 3280271 X150))
(declare-const X151 Int)
(assert (>= X151 (- 3280271)))
(assert (>= 719729 X151))
(declare-const X152 Int)
(assert (>= X152 (- 719729)))
(assert (>= 3280271 X152))
(declare-const X153 Int)
(assert (>= X153 (- 1112124)))
(assert (>= 2887876 X153))
(declare-const X154 Int)
(assert (>= X154 (- 2887876)))
(assert (>= 1112124 X154))
(declare-const X155 Int)
(assert (>= X155 (- 1112124)))
(assert (>= 2887876 X155))
(declare-const X156 Int)
(assert (>= X156 (- 1893227)))
(assert (>= 2106773 X156))
(declare-const X157 Int)
(assert (>= X157 (- 2106773)))
(assert (>= 1893227 X157))
(declare-const X158 Int)
(assert (>= X158 (- 1893227)))
(assert (>= 2106773 X158))
(declare-const X159 Int)
(assert (>= X159 (- 1420227)))
(assert (>= 2579773 X159))
(declare-const X160 Int)
(assert (>= X160 (- 2579773)))
(assert (>= 1420227 X160))
(declare-const X161 Int)
(assert (>= X161 (- 1420227)))
(assert (>= 2579773 X161))
(declare-const X162 Int)
(assert (>= X162 (- 10374)))
(assert (>= 3989626 X162))
(declare-const X163 Int)
(assert (>= X163 (- 3989626)))
(assert (>= 10374 X163))
(declare-const X164 Int)
(assert (>= X164 (- 10374)))
(assert (>= 3989626 X164))
(declare-const X165 Int)
(assert (>= X165 (- 1408706)))
(assert (>= 2591294 X165))
(declare-const X166 Int)
(assert (>= X166 (- 2591294)))
(assert (>= 1408706 X166))
(declare-const X167 Int)
(assert (>= X167 (- 1408706)))
(assert (>= 2591294 X167))
(declare-const X168 Int)
(assert (>= X168 (- 332663)))
(assert (>= 3667337 X168))
(declare-const X169 Int)
(assert (>= X169 (- 3667337)))
(assert (>= 332663 X169))
(declare-const X170 Int)
(assert (>= X170 (- 332663)))
(assert (>= 3667337 X170))
(declare-const X171 Int)
(assert (>= X171 (- 936897)))
(assert (>= 3063103 X171))
(declare-const X172 Int)
(assert (>= X172 (- 3063103)))
(assert (>= 936897 X172))
(declare-const X173 Int)
(assert (>= X173 (- 936897)))
(assert (>= 3063103 X173))
(declare-const X174 Int)
(assert (>= X174 (- 179424)))
(assert (>= 3820576 X174))
(declare-const X175 Int)
(assert (>= X175 (- 3820576)))
(assert (>= 179424 X175))
(declare-const X176 Int)
(assert (>= X176 (- 179424)))
(assert (>= 3820576 X176))
(declare-const X177 Int)
(assert (>= X177 (- 1824156)))
(assert (>= 2175844 X177))
(declare-const X178 Int)
(assert (>= X178 (- 2175844)))
(assert (>= 1824156 X178))
(declare-const X179 Int)
(assert (>= X179 (- 1245798)))
(assert (>= 2175844 X179))
(declare-const X180 Int)
(assert (>= X180 (- 2120824)))
(assert (>= 1879176 X180))
(declare-const X181 Int)
(assert (>= X181 (- 1879176)))
(assert (>= 2120824 X181))
(declare-const X182 Int)
(assert (>= X182 (- 1300818)))
(assert (>= 2120824 X182))
(declare-const X183 Int)
(assert (>= X183 (- 3028362)))
(assert (>= 971638 X183))
(declare-const X184 Int)
(assert (>= X184 (- 971638)))
(assert (>= 3028362 X184))
(declare-const X185 Int)
(assert (>= X185 (- 971638)))
(assert (>= 3028362 X185))
(declare-const X186 Int)
(assert (>= X186 (- 3711828)))
(assert (>= 288172 X186))
(declare-const X187 Int)
(assert (>= X187 (- 288172)))
(assert (>= 3711828 X187))
(declare-const X188 Int)
(assert (>= X188 (- 288172)))
(assert (>= 3711828 X188))
(declare-const X189 Int)
(assert (>= X189 (- 555910)))
(assert (>= 3444090 X189))
(declare-const X190 Int)
(assert (>= X190 (- 3444090)))
(assert (>= 555910 X190))
(declare-const X191 Int)
(assert (>= X191 (- 555910)))
(assert (>= 3444090 X191))
(declare-const X192 Int)
(assert (>= X192 (- 3242762)))
(assert (>= 757238 X192))
(declare-const X193 Int)
(assert (>= X193 (- 757238)))
(assert (>= 3242762 X193))
(declare-const X194 Int)
(assert (>= X194 (- 757238)))
(assert (>= 3242762 X194))
(declare-const X195 Int)
(assert (>= X195 (- 957618)))
(assert (>= 3042382 X195))
(declare-const X196 Int)
(assert (>= X196 (- 3042382)))
(assert (>= 957618 X196))
(declare-const X197 Int)
(assert (>= X197 (- 957618)))
(assert (>= 3042382 X197))
(declare-const X198 Int)
(assert (>= X198 (- 216239)))
(assert (>= 3783761 X198))
(declare-const X199 Int)
(assert (>= X199 (- 3783761)))
(assert (>= 216239 X199))
(declare-const X200 Int)
(assert (>= X200 (- 216239)))
(assert (>= 3783761 X200))
(declare-const X201 Int)
(assert (>= X201 (- 3608718)))
(assert (>= 391282 X201))
(declare-const X202 Int)
(assert (>= X202 (- 391282)))
(assert (>= 3608718 X202))
(declare-const X203 Int)
(assert (>= X203 (- 391282)))
(assert (>= 3608718 X203))
(declare-const X204 Int)
(assert (>= X204 (- 1961830)))
(assert (>= 2038170 X204))
(declare-const X205 Int)
(assert (>= X205 (- 2038170)))
(assert (>= 1961830 X205))
(declare-const X206 Int)
(assert (>= X206 (- 1961830)))
(assert (>= 2038170 X206))
(assert (<= X3 X5))
(assert (<= X4 X5))
(assert (or (= X5 X3) (= X5 X4) ))(assert (= (+ (- X4) X1) 2619948))
(assert (= (+ (- X3) (- X1)) (- 2619948)))
(assert (<= X6 X8))
(assert (<= X7 X8))
(assert (or (= X8 X6) (= X8 X7) ))(assert (= (+ (- X7) X2) 2439745))
(assert (= (+ (- X6) (- X2)) (- 2439745)))
(assert (>= (+ X8 X5) 436515))
(assert (<= X9 X11))
(assert (<= X10 X11))
(assert (or (= X11 X9) (= X11 X10) ))(assert (= (+ (- X10) X1) 40698))
(assert (= (+ (- X9) (- X1)) (- 40698)))
(assert (<= X12 X14))
(assert (<= X13 X14))
(assert (or (= X14 X12) (= X14 X13) ))(assert (= (+ (- X13) X2) 3202257))
(assert (= (+ (- X12) (- X2)) (- 3202257)))
(assert (>= (+ X14 X11) 281885))
(assert (<= X15 X17))
(assert (<= X16 X17))
(assert (or (= X17 X15) (= X17 X16) ))(assert (= (+ (- X16) X1) 3917917))
(assert (= (+ (- X15) (- X1)) (- 3917917)))
(assert (<= X18 X20))
(assert (<= X19 X20))
(assert (or (= X20 X18) (= X20 X19) ))(assert (= (+ (- X19) X2) 3792648))
(assert (= (+ (- X18) (- X2)) (- 3792648)))
(assert (>= (+ X20 X17) 759495))
(assert (<= X21 X23))
(assert (<= X22 X23))
(assert (or (= X23 X21) (= X23 X22) ))(assert (= (+ (- X22) X1) 165939))
(assert (= (+ (- X21) (- X1)) (- 165939)))
(assert (<= X24 X26))
(assert (<= X25 X26))
(assert (or (= X26 X24) (= X26 X25) ))(assert (= (+ (- X25) X2) 498589))
(assert (= (+ (- X24) (- X2)) (- 498589)))
(assert (>= (+ X26 X23) 908674))
(assert (<= X27 X29))
(assert (<= X28 X29))
(assert (or (= X29 X27) (= X29 X28) ))(assert (= (+ (- X28) X1) 3507419))
(assert (= (+ (- X27) (- X1)) (- 3507419)))
(assert (<= X30 X32))
(assert (<= X31 X32))
(assert (or (= X32 X30) (= X32 X31) ))(assert (= (+ (- X31) X2) 2838686))
(assert (= (+ (- X30) (- X2)) (- 2838686)))
(assert (>= (+ X32 X29) 618019))
(assert (<= X33 X35))
(assert (<= X34 X35))
(assert (or (= X35 X33) (= X35 X34) ))(assert (= (+ (- X34) X1) 2915068))
(assert (= (+ (- X33) (- X1)) (- 2915068)))
(assert (<= X36 X38))
(assert (<= X37 X38))
(assert (or (= X38 X36) (= X38 X37) ))(assert (= (+ (- X37) X2) 2754266))
(assert (= (+ (- X36) (- X2)) (- 2754266)))
(assert (>= (+ X38 X35) 417114))
(assert (<= X39 X41))
(assert (<= X40 X41))
(assert (or (= X41 X39) (= X41 X40) ))(assert (= (+ (- X40) X1) 3669058))
(assert (= (+ (- X39) (- X1)) (- 3669058)))
(assert (<= X42 X44))
(assert (<= X43 X44))
(assert (or (= X44 X42) (= X44 X43) ))(assert (= (+ (- X43) X2) 2350731))
(assert (= (+ (- X42) (- X2)) (- 2350731)))
(assert (>= (+ X44 X41) 944335))
(assert (<= X45 X47))
(assert (<= X46 X47))
(assert (or (= X47 X45) (= X47 X46) ))(assert (= (+ (- X46) X1) 540955))
(assert (= (+ (- X45) (- X1)) (- 540955)))
(assert (<= X48 X50))
(assert (<= X49 X50))
(assert (or (= X50 X48) (= X50 X49) ))(assert (= (+ (- X49) X2) 3893312))
(assert (= (+ (- X48) (- X2)) (- 3893312)))
(assert (>= (+ X50 X47) 1098965))
(assert (<= X51 X53))
(assert (<= X52 X53))
(assert (or (= X53 X51) (= X53 X52) ))(assert (= (+ (- X52) X1) 3999024))
(assert (= (+ (- X51) (- X1)) (- 3999024)))
(assert (<= X54 X56))
(assert (<= X55 X56))
(assert (or (= X56 X54) (= X56 X55) ))(assert (= (+ (- X55) X2) 3114260))
(assert (= (+ (- X54) (- X2)) (- 3114260)))
(assert (>= (+ X56 X53) 149162))
(assert (<= X57 X59))
(assert (<= X58 X59))
(assert (or (= X59 X57) (= X59 X58) ))(assert (= (+ (- X58) X1) 2829808))
(assert (= (+ (- X57) (- X1)) (- 2829808)))
(assert (<= X60 X62))
(assert (<= X61 X62))
(assert (or (= X62 X60) (= X62 X61) ))(assert (= (+ (- X61) X2) 2206448))
(assert (= (+ (- X60) (- X2)) (- 2206448)))
(assert (>= (+ X62 X59) 306686))
(assert (<= X63 X65))
(assert (<= X64 X65))
(assert (or (= X65 X63) (= X65 X64) ))(assert (= (+ (- X64) X1) 1180804))
(assert (= (+ (- X63) (- X1)) (- 1180804)))
(assert (<= X66 X68))
(assert (<= X67 X68))
(assert (or (= X68 X66) (= X68 X67) ))(assert (= (+ (- X67) X2) 1112043))
(assert (= (+ (- X66) (- X2)) (- 1112043)))
(assert (>= (+ X68 X65) 719647))
(assert (<= X69 X71))
(assert (<= X70 X71))
(assert (or (= X71 X69) (= X71 X70) ))(assert (= (+ (- X70) X1) 2959440))
(assert (= (+ (- X69) (- X1)) (- 2959440)))
(assert (<= X72 X74))
(assert (<= X73 X74))
(assert (or (= X74 X72) (= X74 X73) ))(assert (= (+ (- X73) X2) 2052862))
(assert (= (+ (- X72) (- X2)) (- 2052862)))
(assert (>= (+ X74 X71) 82258))
(assert (<= X75 X77))
(assert (<= X76 X77))
(assert (or (= X77 X75) (= X77 X76) ))(assert (= (+ (- X76) X1) 3387080))
(assert (= (+ (- X75) (- X1)) (- 3387080)))
(assert (<= X78 X80))
(assert (<= X79 X80))
(assert (or (= X80 X78) (= X80 X79) ))(assert (= (+ (- X79) X2) 3393862))
(assert (= (+ (- X78) (- X2)) (- 3393862)))
(assert (>= (+ X80 X77) 694494))
(assert (<= X81 X83))
(assert (<= X82 X83))
(assert (or (= X83 X81) (= X83 X82) ))(assert (= (+ (- X82) X1) 2083016))
(assert (= (+ (- X81) (- X1)) (- 2083016)))
(assert (<= X84 X86))
(assert (<= X85 X86))
(assert (or (= X86 X84) (= X86 X85) ))(assert (= (+ (- X85) X2) 3743849))
(assert (= (+ (- X84) (- X2)) (- 3743849)))
(assert (>= (+ X86 X83) 703469))
(assert (<= X87 X89))
(assert (<= X88 X89))
(assert (or (= X89 X87) (= X89 X88) ))(assert (= (+ (- X88) X1) 1468886))
(assert (= (+ (- X87) (- X1)) (- 1468886)))
(assert (<= X90 X92))
(assert (<= X91 X92))
(assert (or (= X92 X90) (= X92 X91) ))(assert (= (+ (- X91) X2) 1597081))
(assert (= (+ (- X90) (- X2)) (- 1597081)))
(assert (>= (+ X92 X89) 1492767))
(assert (<= X93 X95))
(assert (<= X94 X95))
(assert (or (= X95 X93) (= X95 X94) ))(assert (= (+ (- X94) X1) 3273340))
(assert (= (+ (- X93) (- X1)) (- 3273340)))
(assert (<= X96 X98))
(assert (<= X97 X98))
(assert (or (= X98 X96) (= X98 X97) ))(assert (= (+ (- X97) X2) 3998032))
(assert (= (+ (- X96) (- X2)) (- 3998032)))
(assert (>= (+ X98 X95) 342934))
(assert (<= X99 X101))
(assert (<= X100 X101))
(assert (or (= X101 X99) (= X101 X100) ))(assert (= (+ (- X100) X1) 2974807))
(assert (= (+ (- X99) (- X1)) (- 2974807)))
(assert (<= X102 X104))
(assert (<= X103 X104))
(assert (or (= X104 X102) (= X104 X103) ))(assert (= (+ (- X103) X2) 3732804))
(assert (= (+ (- X102) (- X2)) (- 3732804)))
(assert (>= (+ X104 X101) 220829))
(assert (<= X105 X107))
(assert (<= X106 X107))
(assert (or (= X107 X105) (= X107 X106) ))(assert (= (+ (- X106) X1) 1864417))
(assert (= (+ (- X105) (- X1)) (- 1864417)))
(assert (<= X108 X110))
(assert (<= X109 X110))
(assert (or (= X110 X108) (= X110 X109) ))(assert (= (+ (- X109) X2) 360451))
(assert (= (+ (- X108) (- X2)) (- 360451)))
(assert (>= (+ X110 X107) 1207156))
(assert (<= X111 X113))
(assert (<= X112 X113))
(assert (or (= X113 X111) (= X113 X112) ))(assert (= (+ (- X112) X1) 1494086))
(assert (= (+ (- X111) (- X1)) (- 1494086)))
(assert (<= X114 X116))
(assert (<= X115 X116))
(assert (or (= X116 X114) (= X116 X115) ))(assert (= (+ (- X115) X2) 3030634))
(assert (= (+ (- X114) (- X2)) (- 3030634)))
(assert (>= (+ X116 X113) 1280238))
(assert (<= X117 X119))
(assert (<= X118 X119))
(assert (or (= X119 X117) (= X119 X118) ))(assert (= (+ (- X118) X1) 3990734))
(assert (= (+ (- X117) (- X1)) (- 3990734)))
(assert (<= X120 X122))
(assert (<= X121 X122))
(assert (or (= X122 X120) (= X122 X121) ))(assert (= (+ (- X121) X2) 2991891))
(assert (= (+ (- X120) (- X2)) (- 2991891)))
(assert (>= (+ X122 X119) 114081))
(assert (<= X123 X125))
(assert (<= X124 X125))
(assert (or (= X125 X123) (= X125 X124) ))(assert (= (+ (- X124) X1) 120643))
(assert (= (+ (- X123) (- X1)) (- 120643)))
(assert (<= X126 X128))
(assert (<= X127 X128))
(assert (or (= X128 X126) (= X128 X127) ))(assert (= (+ (- X127) X2) 2878973))
(assert (= (+ (- X126) (- X2)) (- 2878973)))
(assert (>= (+ X128 X125) 335688))
(assert (<= X129 X131))
(assert (<= X130 X131))
(assert (or (= X131 X129) (= X131 X130) ))(assert (= (+ (- X130) X1) 489))
(assert (= (+ (- X129) (- X1)) (- 489)))
(assert (<= X132 X134))
(assert (<= X133 X134))
(assert (or (= X134 X132) (= X134 X133) ))(assert (= (+ (- X133) X2) 1241813))
(assert (= (+ (- X132) (- X2)) (- 1241813)))
(assert (>= (+ X134 X131) 1457663))
(assert (<= X135 X137))
(assert (<= X136 X137))
(assert (or (= X137 X135) (= X137 X136) ))(assert (= (+ (- X136) X1) 720384))
(assert (= (+ (- X135) (- X1)) (- 720384)))
(assert (<= X138 X140))
(assert (<= X139 X140))
(assert (or (= X140 X138) (= X140 X139) ))(assert (= (+ (- X139) X2) 134640))
(assert (= (+ (- X138) (- X2)) (- 134640)))
(assert (>= (+ X140 X137) 718178))
(assert (<= X141 X143))
(assert (<= X142 X143))
(assert (or (= X143 X141) (= X143 X142) ))(assert (= (+ (- X142) X1) 2874212))
(assert (= (+ (- X141) (- X1)) (- 2874212)))
(assert (<= X144 X146))
(assert (<= X145 X146))
(assert (or (= X146 X144) (= X146 X145) ))(assert (= (+ (- X145) X2) 3897058))
(assert (= (+ (- X144) (- X2)) (- 3897058)))
(assert (>= (+ X146 X143) 240938))
(assert (<= X147 X149))
(assert (<= X148 X149))
(assert (or (= X149 X147) (= X149 X148) ))(assert (= (+ (- X148) X1) 2808659))
(assert (= (+ (- X147) (- X1)) (- 2808659)))
(assert (<= X150 X152))
(assert (<= X151 X152))
(assert (or (= X152 X150) (= X152 X151) ))(assert (= (+ (- X151) X2) 3280271))
(assert (= (+ (- X150) (- X2)) (- 3280271)))
(assert (>= (+ X152 X149) 522326))
(assert (<= X153 X155))
(assert (<= X154 X155))
(assert (or (= X155 X153) (= X155 X154) ))(assert (= (+ (- X154) X1) 2887876))
(assert (= (+ (- X153) (- X1)) (- 2887876)))
(assert (<= X156 X158))
(assert (<= X157 X158))
(assert (or (= X158 X156) (= X158 X157) ))(assert (= (+ (- X157) X2) 2106773))
(assert (= (+ (- X156) (- X2)) (- 2106773)))
(assert (>= (+ X158 X155) 148943))
(assert (<= X159 X161))
(assert (<= X160 X161))
(assert (or (= X161 X159) (= X161 X160) ))(assert (= (+ (- X160) X1) 2579773))
(assert (= (+ (- X159) (- X1)) (- 2579773)))
(assert (<= X162 X164))
(assert (<= X163 X164))
(assert (or (= X164 X162) (= X164 X163) ))(assert (= (+ (- X163) X2) 3989626))
(assert (= (+ (- X162) (- X2)) (- 3989626)))
(assert (>= (+ X164 X161) 415917))
(assert (<= X165 X167))
(assert (<= X166 X167))
(assert (or (= X167 X165) (= X167 X166) ))(assert (= (+ (- X166) X1) 2591294))
(assert (= (+ (- X165) (- X1)) (- 2591294)))
(assert (<= X168 X170))
(assert (<= X169 X170))
(assert (or (= X170 X168) (= X170 X169) ))(assert (= (+ (- X169) X2) 3667337))
(assert (= (+ (- X168) (- X2)) (- 3667337)))
(assert (>= (+ X170 X167) 271703))
(assert (<= X171 X173))
(assert (<= X172 X173))
(assert (or (= X173 X171) (= X173 X172) ))(assert (= (+ (- X172) X1) 3063103))
(assert (= (+ (- X171) (- X1)) (- 3063103)))
(assert (<= X174 X176))
(assert (<= X175 X176))
(assert (or (= X176 X174) (= X176 X175) ))(assert (= (+ (- X175) X2) 3820576))
(assert (= (+ (- X174) (- X2)) (- 3820576)))
(assert (>= (+ X176 X173) 56199))
(assert (<= X177 X179))
(assert (<= X178 X179))
(assert (or (= X179 X177) (= X179 X178) ))(assert (= (+ (- X178) X1) 2175844))
(assert (= (+ (- X177) (- X1)) (- 2175844)))
(assert (<= X180 X182))
(assert (<= X181 X182))
(assert (or (= X182 X180) (= X182 X181) ))(assert (= (+ (- X181) X2) 1879176))
(assert (= (+ (- X180) (- X2)) (- 1879176)))
(assert (>= (+ X182 X179) 875026))
(assert (<= X183 X185))
(assert (<= X184 X185))
(assert (or (= X185 X183) (= X185 X184) ))(assert (= (+ (- X184) X1) 971638))
(assert (= (+ (- X183) (- X1)) (- 971638)))
(assert (<= X186 X188))
(assert (<= X187 X188))
(assert (or (= X188 X186) (= X188 X187) ))(assert (= (+ (- X187) X2) 288172))
(assert (= (+ (- X186) (- X2)) (- 288172)))
(assert (>= (+ X188 X185) 386656))
(assert (<= X189 X191))
(assert (<= X190 X191))
(assert (or (= X191 X189) (= X191 X190) ))(assert (= (+ (- X190) X1) 3444090))
(assert (= (+ (- X189) (- X1)) (- 3444090)))
(assert (<= X192 X194))
(assert (<= X193 X194))
(assert (or (= X194 X192) (= X194 X193) ))(assert (= (+ (- X193) X2) 757238))
(assert (= (+ (- X192) (- X2)) (- 757238)))
(assert (>= (+ X194 X191) 1756808))
(assert (<= X195 X197))
(assert (<= X196 X197))
(assert (or (= X197 X195) (= X197 X196) ))(assert (= (+ (- X196) X1) 3042382))
(assert (= (+ (- X195) (- X1)) (- 3042382)))
(assert (<= X198 X200))
(assert (<= X199 X200))
(assert (or (= X200 X198) (= X200 X199) ))(assert (= (+ (- X199) X2) 3783761))
(assert (= (+ (- X198) (- X2)) (- 3783761)))
(assert (>= (+ X200 X197) 102297))
(assert (<= X201 X203))
(assert (<= X202 X203))
(assert (or (= X203 X201) (= X203 X202) ))(assert (= (+ (- X202) X1) 391282))
(assert (= (+ (- X201) (- X1)) (- 391282)))
(assert (<= X204 X206))
(assert (<= X205 X206))
(assert (or (= X206 X204) (= X206 X205) ))(assert (= (+ (- X205) X2) 2038170))
(assert (= (+ (- X204) (- X2)) (- 2038170)))
(assert (>= (+ X206 X203) 1052099))
(check-sat)
(get-value (X1))
(get-value (X2))
(get-value (X3))
(get-value (X4))
(get-value (X5))
(get-value (X6))
(get-value (X7))
(get-value (X8))
(get-value (X9))
(get-value (X10))
(get-value (X11))
(get-value (X12))
(get-value (X13))
(get-value (X14))
(get-value (X15))
(get-value (X16))
(get-value (X17))
(get-value (X18))
(get-value (X19))
(get-value (X20))
(get-value (X21))
(get-value (X22))
(get-value (X23))
(get-value (X24))
(get-value (X25))
(get-value (X26))
(get-value (X27))
(get-value (X28))
(get-value (X29))
(get-value (X30))
(get-value (X31))
(get-value (X32))
(get-value (X33))
(get-value (X34))
(get-value (X35))
(get-value (X36))
(get-value (X37))
(get-value (X38))
(get-value (X39))
(get-value (X40))
(get-value (X41))
(get-value (X42))
(get-value (X43))
(get-value (X44))
(get-value (X45))
(get-value (X46))
(get-value (X47))
(get-value (X48))
(get-value (X49))
(get-value (X50))
(get-value (X51))
(get-value (X52))
(get-value (X53))
(get-value (X54))
(get-value (X55))
(get-value (X56))
(get-value (X57))
(get-value (X58))
(get-value (X59))
(get-value (X60))
(get-value (X61))
(get-value (X62))
(get-value (X63))
(get-value (X64))
(get-value (X65))
(get-value (X66))
(get-value (X67))
(get-value (X68))
(get-value (X69))
(get-value (X70))
(get-value (X71))
(get-value (X72))
(get-value (X73))
(get-value (X74))
(get-value (X75))
(get-value (X76))
(get-value (X77))
(get-value (X78))
(get-value (X79))
(get-value (X80))
(get-value (X81))
(get-value (X82))
(get-value (X83))
(get-value (X84))
(get-value (X85))
(get-value (X86))
(get-value (X87))
(get-value (X88))
(get-value (X89))
(get-value (X90))
(get-value (X91))
(get-value (X92))
(get-value (X93))
(get-value (X94))
(get-value (X95))
(get-value (X96))
(get-value (X97))
(get-value (X98))
(get-value (X99))
(get-value (X100))
(get-value (X101))
(get-value (X102))
(get-value (X103))
(get-value (X104))
(get-value (X105))
(get-value (X106))
(get-value (X107))
(get-value (X108))
(get-value (X109))
(get-value (X110))
(get-value (X111))
(get-value (X112))
(get-value (X113))
(get-value (X114))
(get-value (X115))
(get-value (X116))
(get-value (X117))
(get-value (X118))
(get-value (X119))
(get-value (X120))
(get-value (X121))
(get-value (X122))
(get-value (X123))
(get-value (X124))
(get-value (X125))
(get-value (X126))
(get-value (X127))
(get-value (X128))
(get-value (X129))
(get-value (X130))
(get-value (X131))
(get-value (X132))
(get-value (X133))
(get-value (X134))
(get-value (X135))
(get-value (X136))
(get-value (X137))
(get-value (X138))
(get-value (X139))
(get-value (X140))
(get-value (X141))
(get-value (X142))
(get-value (X143))
(get-value (X144))
(get-value (X145))
(get-value (X146))
(get-value (X147))
(get-value (X148))
(get-value (X149))
(get-value (X150))
(get-value (X151))
(get-value (X152))
(get-value (X153))
(get-value (X154))
(get-value (X155))
(get-value (X156))
(get-value (X157))
(get-value (X158))
(get-value (X159))
(get-value (X160))
(get-value (X161))
(get-value (X162))
(get-value (X163))
(get-value (X164))
(get-value (X165))
(get-value (X166))
(get-value (X167))
(get-value (X168))
(get-value (X169))
(get-value (X170))
(get-value (X171))
(get-value (X172))
(get-value (X173))
(get-value (X174))
(get-value (X175))
(get-value (X176))
(get-value (X177))
(get-value (X178))
(get-value (X179))
(get-value (X180))
(get-value (X181))
(get-value (X182))
(get-value (X183))
(get-value (X184))
(get-value (X185))
(get-value (X186))
(get-value (X187))
(get-value (X188))
(get-value (X189))
(get-value (X190))
(get-value (X191))
(get-value (X192))
(get-value (X193))
(get-value (X194))
(get-value (X195))
(get-value (X196))
(get-value (X197))
(get-value (X198))
(get-value (X199))
(get-value (X200))
(get-value (X201))
(get-value (X202))
(get-value (X203))
(get-value (X204))
(get-value (X205))
(get-value (X206))
